p cnf 7230 15
3746 -4375 0
-2040 -3742 4370 0
2040 -4371 0
3746 -4377 0
-3752 -4375 4376 0
-4373 4375 0
-3746 4374 0
4372 -4374 0
-4372 4373 0
-4370 4371 0
-4376 4377 0
3742 -4371 0
3752 -4377 0
-3748 4379 0
3748 -4379 0
